min: T; 


//Implementa a funcao objetivo 
T>=F[1];
T>=F[2];
T>=F[3];
T>=F[4];
T>=F[5];
T>=F[6];
T>=F[7];
T>=F[8];
T>=F[9];
T>=F[10];
T>=F[11];
T>=F[12];
T>=F[13];
T>=F[14];
T>=F[15];
T>=F[16];
T>=F[17];
T>=F[18];
T>=F[19];
T>=F[20];
T>=F[21];
T>=F[22];
T>=F[23];
T>=F[24];
T>=F[25];
T>=F[26];
T>=F[27];
T>=F[28];
T>=F[29];
T>=F[30];
T>=F[31];
T>=F[32];
T>=F[33];
T>=F[34];
T>=F[35];
T>=F[36];
T>=F[37];
T>=F[38];
T>=F[39];
T>=F[40];
T>=F[41];
T>=F[42];
T>=F[43];
T>=F[44];
T>=F[45];
T>=F[46];
T>=F[47];
T>=F[48];
T>=F[49];
T>=F[50];
T>=F[51];
T>=F[52];
T>=F[53];
T>=F[54];
T>=F[55];
T>=F[56];
T>=F[57];
T>=F[58];
T>=F[59];
T>=F[60];

 // Restricoes de precedencia 
I[1]>=F[28];
I[1]>=F[30];
I[1]>=F[37];
I[1]>=F[41];
I[1]>=F[42];
I[1]>=F[44];
I[1]>=F[46];
I[1]>=F[47];
I[1]>=F[50];
I[1]>=F[51];
I[1]>=F[52];
I[1]>=F[54];
I[1]>=F[56];
I[1]>=F[58];
I[1]>=F[59];
I[2]>=F[23];
I[2]>=F[24];
I[2]>=F[32];
I[2]>=F[35];
I[2]>=F[41];
I[2]>=F[42];
I[2]>=F[46];
I[2]>=F[47];
I[2]>=F[50];
I[2]>=F[53];
I[2]>=F[54];
I[2]>=F[56];
I[3]>=F[16];
I[3]>=F[22];
I[3]>=F[41];
I[3]>=F[46];
I[3]>=F[47];
I[3]>=F[49];
I[3]>=F[51];
I[3]>=F[52];
I[3]>=F[54];
I[3]>=F[56];
I[3]>=F[57];
I[4]>=F[5];
I[4]>=F[9];
I[4]>=F[11];
I[4]>=F[15];
I[4]>=F[17];
I[4]>=F[20];
I[4]>=F[26];
I[4]>=F[32];
I[4]>=F[33];
I[4]>=F[34];
I[4]>=F[37];
I[4]>=F[38];
I[4]>=F[39];
I[4]>=F[40];
I[4]>=F[41];
I[4]>=F[42];
I[4]>=F[43];
I[4]>=F[46];
I[4]>=F[48];
I[4]>=F[50];
I[4]>=F[52];
I[4]>=F[53];
I[4]>=F[54];
I[4]>=F[55];
I[4]>=F[56];
I[4]>=F[58];
I[4]>=F[60];
I[5]>=F[11];
I[5]>=F[48];
I[5]>=F[53];
I[5]>=F[58];
I[6]>=F[48];
I[6]>=F[51];
I[6]>=F[53];
I[7]>=F[45];
I[7]>=F[46];
I[7]>=F[56];
I[7]>=F[57];
I[8]>=F[10];
I[8]>=F[34];
I[8]>=F[50];
I[9]>=F[17];
I[9]>=F[58];
I[12]>=F[42];
I[12]>=F[46];
I[12]>=F[58];
I[13]>=F[33];
I[13]>=F[34];
I[13]>=F[41];
I[13]>=F[49];
I[13]>=F[50];
I[13]>=F[56];
I[13]>=F[57];
I[14]>=F[23];
I[14]>=F[24];
I[14]>=F[32];
I[14]>=F[35];
I[14]>=F[41];
I[14]>=F[42];
I[14]>=F[46];
I[14]>=F[47];
I[14]>=F[50];
I[14]>=F[54];
I[14]>=F[56];
I[14]>=F[60];
I[15]>=F[26];
I[15]>=F[32];
I[15]>=F[37];
I[15]>=F[39];
I[15]>=F[40];
I[15]>=F[42];
I[15]>=F[43];
I[15]>=F[46];
I[15]>=F[50];
I[15]>=F[52];
I[15]>=F[54];
I[15]>=F[60];
I[18]>=F[25];
I[18]>=F[43];
I[18]>=F[47];
I[18]>=F[51];
I[18]>=F[52];
I[18]>=F[54];
I[18]>=F[60];
I[19]>=F[23];
I[19]>=F[24];
I[19]>=F[26];
I[19]>=F[32];
I[19]>=F[35];
I[19]>=F[40];
I[19]>=F[41];
I[19]>=F[42];
I[19]>=F[43];
I[19]>=F[46];
I[19]>=F[47];
I[19]>=F[50];
I[19]>=F[52];
I[19]>=F[54];
I[19]>=F[56];
I[19]>=F[57];
I[19]>=F[60];
I[20]>=F[33];
I[20]>=F[34];
I[20]>=F[38];
I[20]>=F[41];
I[20]>=F[50];
I[20]>=F[55];
I[20]>=F[56];
I[21]>=F[56];
I[22]>=F[49];
I[22]>=F[51];
I[22]>=F[57];
I[23]>=F[24];
I[23]>=F[32];
I[23]>=F[35];
I[23]>=F[41];
I[23]>=F[42];
I[23]>=F[46];
I[23]>=F[47];
I[23]>=F[50];
I[23]>=F[54];
I[23]>=F[56];
I[24]>=F[35];
I[24]>=F[41];
I[24]>=F[42];
I[24]>=F[46];
I[24]>=F[47];
I[24]>=F[54];
I[24]>=F[56];
I[25]>=F[43];
I[25]>=F[51];
I[25]>=F[52];
I[25]>=F[54];
I[25]>=F[60];
I[26]>=F[40];
I[26]>=F[42];
I[26]>=F[43];
I[26]>=F[46];
I[26]>=F[52];
I[26]>=F[54];
I[26]>=F[60];
I[27]>=F[37];
I[27]>=F[42];
I[27]>=F[46];
I[27]>=F[51];
I[28]>=F[41];
I[28]>=F[44];
I[28]>=F[47];
I[28]>=F[50];
I[28]>=F[51];
I[28]>=F[54];
I[28]>=F[56];
I[28]>=F[58];
I[29]>=F[38];
I[29]>=F[55];
I[30]>=F[59];
I[31]>=F[51];
I[31]>=F[60];
I[32]>=F[50];
I[33]>=F[34];
I[33]>=F[41];
I[33]>=F[50];
I[33]>=F[56];
I[34]>=F[50];
I[35]>=F[41];
I[35]>=F[47];
I[35]>=F[54];
I[35]>=F[56];
I[36]>=F[41];
I[36]>=F[53];
I[36]>=F[56];
I[37]>=F[42];
I[37]>=F[46];
I[38]>=F[55];
I[40]>=F[42];
I[40]>=F[46];
I[41]>=F[56];
I[42]>=F[46];
I[43]>=F[52];
I[43]>=F[54];
I[43]>=F[60];
I[44]>=F[47];
I[44]>=F[50];
I[44]>=F[54];
I[44]>=F[58];
I[45]>=F[56];
I[45]>=F[57];
I[47]>=F[54];
I[48]>=F[53];
I[49]>=F[57];

 // Implementa as restricoes de tempo 
F[1]-I[1]>=10;
F[2]-I[2]>=13;
F[3]-I[3]>=11;
F[4]-I[4]>=12;
F[5]-I[5]>=16;
F[6]-I[6]>=6;
F[7]-I[7]>=14;
F[8]-I[8]>=18;
F[9]-I[9]>=6;
F[10]-I[10]>=17;
F[11]-I[11]>=12;
F[12]-I[12]>=6;
F[13]-I[13]>=11;
F[14]-I[14]>=10;
F[15]-I[15]>=6;
F[16]-I[16]>=3;
F[17]-I[17]>=11;
F[18]-I[18]>=12;
F[19]-I[19]>=5;
F[20]-I[20]>=13;
F[21]-I[21]>=13;
F[22]-I[22]>=16;
F[23]-I[23]>=5;
F[24]-I[24]>=15;
F[25]-I[25]>=8;
F[26]-I[26]>=15;
F[27]-I[27]>=18;
F[28]-I[28]>=9;
F[29]-I[29]>=9;
F[30]-I[30]>=9;
F[31]-I[31]>=18;
F[32]-I[32]>=8;
F[33]-I[33]>=7;
F[34]-I[34]>=3;
F[35]-I[35]>=7;
F[36]-I[36]>=11;
F[37]-I[37]>=18;
F[38]-I[38]>=5;
F[39]-I[39]>=12;
F[40]-I[40]>=9;
F[41]-I[41]>=4;
F[42]-I[42]>=13;
F[43]-I[43]>=14;
F[44]-I[44]>=4;
F[45]-I[45]>=7;
F[46]-I[46]>=14;
F[47]-I[47]>=11;
F[48]-I[48]>=12;
F[49]-I[49]>=13;
F[50]-I[50]>=17;
F[51]-I[51]>=8;
F[52]-I[52]>=10;
F[53]-I[53]>=14;
F[54]-I[54]>=6;
F[55]-I[55]>=7;
F[56]-I[56]>=11;
F[57]-I[57]>=9;
F[58]-I[58]>=13;
F[59]-I[59]>=5;
F[60]-I[60]>=11;

 // Implementa as restricoes de nao colisao 
u[1][10] + u[10][1] >= 1;
630u[1][10]>= I[1]-F[10];
630-630u[1][10]>= F[10]-I[1];
630u[10][1]>= I[10]-F[1];
630-630u[10][1]>= F[1]-I[10];

u[1][36] + u[36][1] >= 1;
630u[1][36]>= I[1]-F[36];
630-630u[1][36]>= F[36]-I[1];
630u[36][1]>= I[36]-F[1];
630-630u[36][1]>= F[1]-I[36];

u[1][40] + u[40][1] >= 1;
630u[1][40]>= I[1]-F[40];
630-630u[1][40]>= F[40]-I[1];
630u[40][1]>= I[40]-F[1];
630-630u[40][1]>= F[1]-I[40];

u[2][12] + u[12][2] >= 1;
630u[2][12]>= I[2]-F[12];
630-630u[2][12]>= F[12]-I[2];
630u[12][2]>= I[12]-F[2];
630-630u[12][2]>= F[2]-I[12];

u[2][38] + u[38][2] >= 1;
630u[2][38]>= I[2]-F[38];
630-630u[2][38]>= F[38]-I[2];
630u[38][2]>= I[38]-F[2];
630-630u[38][2]>= F[2]-I[38];

u[2][48] + u[48][2] >= 1;
630u[2][48]>= I[2]-F[48];
630-630u[2][48]>= F[48]-I[2];
630u[48][2]>= I[48]-F[2];
630-630u[48][2]>= F[2]-I[48];

u[2][51] + u[51][2] >= 1;
630u[2][51]>= I[2]-F[51];
630-630u[2][51]>= F[51]-I[2];
630u[51][2]>= I[51]-F[2];
630-630u[51][2]>= F[2]-I[51];

u[3][5] + u[5][3] >= 1;
630u[3][5]>= I[3]-F[5];
630-630u[3][5]>= F[5]-I[3];
630u[5][3]>= I[5]-F[3];
630-630u[5][3]>= F[3]-I[5];

u[3][11] + u[11][3] >= 1;
630u[3][11]>= I[3]-F[11];
630-630u[3][11]>= F[11]-I[3];
630u[11][3]>= I[11]-F[3];
630-630u[11][3]>= F[3]-I[11];

u[3][20] + u[20][3] >= 1;
630u[3][20]>= I[3]-F[20];
630-630u[3][20]>= F[20]-I[3];
630u[20][3]>= I[20]-F[3];
630-630u[20][3]>= F[3]-I[20];

u[3][37] + u[37][3] >= 1;
630u[3][37]>= I[3]-F[37];
630-630u[3][37]>= F[37]-I[3];
630u[37][3]>= I[37]-F[3];
630-630u[37][3]>= F[3]-I[37];

u[3][39] + u[39][3] >= 1;
630u[3][39]>= I[3]-F[39];
630-630u[3][39]>= F[39]-I[3];
630u[39][3]>= I[39]-F[3];
630-630u[39][3]>= F[3]-I[39];

u[3][42] + u[42][3] >= 1;
630u[3][42]>= I[3]-F[42];
630-630u[3][42]>= F[42]-I[3];
630u[42][3]>= I[42]-F[3];
630-630u[42][3]>= F[3]-I[42];

u[4][16] + u[16][4] >= 1;
630u[4][16]>= I[4]-F[16];
630-630u[4][16]>= F[16]-I[4];
630u[16][4]>= I[16]-F[4];
630-630u[16][4]>= F[4]-I[16];

u[4][21] + u[21][4] >= 1;
630u[4][21]>= I[4]-F[21];
630-630u[4][21]>= F[21]-I[4];
630u[21][4]>= I[21]-F[4];
630-630u[21][4]>= F[4]-I[21];

u[4][31] + u[31][4] >= 1;
630u[4][31]>= I[4]-F[31];
630-630u[4][31]>= F[31]-I[4];
630u[31][4]>= I[31]-F[4];
630-630u[31][4]>= F[4]-I[31];

u[4][59] + u[59][4] >= 1;
630u[4][59]>= I[4]-F[59];
630-630u[4][59]>= F[59]-I[4];
630u[59][4]>= I[59]-F[4];
630-630u[59][4]>= F[4]-I[59];

u[5][20] + u[20][5] >= 1;
630u[5][20]>= I[5]-F[20];
630-630u[5][20]>= F[20]-I[5];
630u[20][5]>= I[20]-F[5];
630-630u[20][5]>= F[5]-I[20];

u[5][37] + u[37][5] >= 1;
630u[5][37]>= I[5]-F[37];
630-630u[5][37]>= F[37]-I[5];
630u[37][5]>= I[37]-F[5];
630-630u[37][5]>= F[5]-I[37];

u[5][39] + u[39][5] >= 1;
630u[5][39]>= I[5]-F[39];
630-630u[5][39]>= F[39]-I[5];
630u[39][5]>= I[39]-F[5];
630-630u[39][5]>= F[5]-I[39];

u[5][42] + u[42][5] >= 1;
630u[5][42]>= I[5]-F[42];
630-630u[5][42]>= F[42]-I[5];
630u[42][5]>= I[42]-F[5];
630-630u[42][5]>= F[5]-I[42];

u[5][52] + u[52][5] >= 1;
630u[5][52]>= I[5]-F[52];
630-630u[5][52]>= F[52]-I[5];
630u[52][5]>= I[52]-F[5];
630-630u[52][5]>= F[5]-I[52];

u[6][14] + u[14][6] >= 1;
630u[6][14]>= I[6]-F[14];
630-630u[6][14]>= F[14]-I[6];
630u[14][6]>= I[14]-F[6];
630-630u[14][6]>= F[6]-I[14];

u[6][25] + u[25][6] >= 1;
630u[6][25]>= I[6]-F[25];
630-630u[6][25]>= F[25]-I[6];
630u[25][6]>= I[25]-F[6];
630-630u[25][6]>= F[6]-I[25];

u[6][30] + u[30][6] >= 1;
630u[6][30]>= I[6]-F[30];
630-630u[6][30]>= F[30]-I[6];
630u[30][6]>= I[30]-F[6];
630-630u[30][6]>= F[6]-I[30];

u[7][8] + u[8][7] >= 1;
630u[7][8]>= I[7]-F[8];
630-630u[7][8]>= F[8]-I[7];
630u[8][7]>= I[8]-F[7];
630-630u[8][7]>= F[7]-I[8];

u[7][27] + u[27][7] >= 1;
630u[7][27]>= I[7]-F[27];
630-630u[7][27]>= F[27]-I[7];
630u[27][7]>= I[27]-F[7];
630-630u[27][7]>= F[7]-I[27];

u[7][32] + u[32][7] >= 1;
630u[7][32]>= I[7]-F[32];
630-630u[7][32]>= F[32]-I[7];
630u[32][7]>= I[32]-F[7];
630-630u[32][7]>= F[7]-I[32];

u[7][34] + u[34][7] >= 1;
630u[7][34]>= I[7]-F[34];
630-630u[7][34]>= F[34]-I[7];
630u[34][7]>= I[34]-F[7];
630-630u[34][7]>= F[7]-I[34];

u[8][27] + u[27][8] >= 1;
630u[8][27]>= I[8]-F[27];
630-630u[8][27]>= F[27]-I[8];
630u[27][8]>= I[27]-F[8];
630-630u[27][8]>= F[8]-I[27];

u[8][32] + u[32][8] >= 1;
630u[8][32]>= I[8]-F[32];
630-630u[8][32]>= F[32]-I[8];
630u[32][8]>= I[32]-F[8];
630-630u[32][8]>= F[8]-I[32];

u[8][45] + u[45][8] >= 1;
630u[8][45]>= I[8]-F[45];
630-630u[8][45]>= F[45]-I[8];
630u[45][8]>= I[45]-F[8];
630-630u[45][8]>= F[8]-I[45];

u[8][46] + u[46][8] >= 1;
630u[8][46]>= I[8]-F[46];
630-630u[8][46]>= F[46]-I[8];
630u[46][8]>= I[46]-F[8];
630-630u[46][8]>= F[8]-I[46];

u[9][22] + u[22][9] >= 1;
630u[9][22]>= I[9]-F[22];
630-630u[9][22]>= F[22]-I[9];
630u[22][9]>= I[22]-F[9];
630-630u[22][9]>= F[9]-I[22];

u[9][54] + u[54][9] >= 1;
630u[9][54]>= I[9]-F[54];
630-630u[9][54]>= F[54]-I[9];
630u[54][9]>= I[54]-F[9];
630-630u[54][9]>= F[9]-I[54];

u[10][36] + u[36][10] >= 1;
630u[10][36]>= I[10]-F[36];
630-630u[10][36]>= F[36]-I[10];
630u[36][10]>= I[36]-F[10];
630-630u[36][10]>= F[10]-I[36];

u[10][40] + u[40][10] >= 1;
630u[10][40]>= I[10]-F[40];
630-630u[10][40]>= F[40]-I[10];
630u[40][10]>= I[40]-F[10];
630-630u[40][10]>= F[10]-I[40];

u[10][56] + u[56][10] >= 1;
630u[10][56]>= I[10]-F[56];
630-630u[10][56]>= F[56]-I[10];
630u[56][10]>= I[56]-F[10];
630-630u[56][10]>= F[10]-I[56];

u[11][20] + u[20][11] >= 1;
630u[11][20]>= I[11]-F[20];
630-630u[11][20]>= F[20]-I[11];
630u[20][11]>= I[20]-F[11];
630-630u[20][11]>= F[11]-I[20];

u[11][37] + u[37][11] >= 1;
630u[11][37]>= I[11]-F[37];
630-630u[11][37]>= F[37]-I[11];
630u[37][11]>= I[37]-F[11];
630-630u[37][11]>= F[11]-I[37];

u[11][39] + u[39][11] >= 1;
630u[11][39]>= I[11]-F[39];
630-630u[11][39]>= F[39]-I[11];
630u[39][11]>= I[39]-F[11];
630-630u[39][11]>= F[11]-I[39];

u[11][42] + u[42][11] >= 1;
630u[11][42]>= I[11]-F[42];
630-630u[11][42]>= F[42]-I[11];
630u[42][11]>= I[42]-F[11];
630-630u[42][11]>= F[11]-I[42];

u[11][52] + u[52][11] >= 1;
630u[11][52]>= I[11]-F[52];
630-630u[11][52]>= F[52]-I[11];
630u[52][11]>= I[52]-F[11];
630-630u[52][11]>= F[11]-I[52];

u[12][38] + u[38][12] >= 1;
630u[12][38]>= I[12]-F[38];
630-630u[12][38]>= F[38]-I[12];
630u[38][12]>= I[38]-F[12];
630-630u[38][12]>= F[12]-I[38];

u[12][48] + u[48][12] >= 1;
630u[12][48]>= I[12]-F[48];
630-630u[12][48]>= F[48]-I[12];
630u[48][12]>= I[48]-F[12];
630-630u[48][12]>= F[12]-I[48];

u[12][50] + u[50][12] >= 1;
630u[12][50]>= I[12]-F[50];
630-630u[12][50]>= F[50]-I[12];
630u[50][12]>= I[50]-F[12];
630-630u[50][12]>= F[12]-I[50];

u[12][51] + u[51][12] >= 1;
630u[12][51]>= I[12]-F[51];
630-630u[12][51]>= F[51]-I[12];
630u[51][12]>= I[51]-F[12];
630-630u[51][12]>= F[12]-I[51];

u[12][53] + u[53][12] >= 1;
630u[12][53]>= I[12]-F[53];
630-630u[12][53]>= F[53]-I[12];
630u[53][12]>= I[53]-F[12];
630-630u[53][12]>= F[12]-I[53];

u[13][15] + u[15][13] >= 1;
630u[13][15]>= I[13]-F[15];
630-630u[13][15]>= F[15]-I[13];
630u[15][13]>= I[15]-F[13];
630-630u[15][13]>= F[13]-I[15];

u[13][23] + u[23][13] >= 1;
630u[13][23]>= I[13]-F[23];
630-630u[13][23]>= F[23]-I[13];
630u[23][13]>= I[23]-F[13];
630-630u[23][13]>= F[13]-I[23];

u[14][25] + u[25][14] >= 1;
630u[14][25]>= I[14]-F[25];
630-630u[14][25]>= F[25]-I[14];
630u[25][14]>= I[25]-F[14];
630-630u[25][14]>= F[14]-I[25];

u[14][30] + u[30][14] >= 1;
630u[14][30]>= I[14]-F[30];
630-630u[14][30]>= F[30]-I[14];
630u[30][14]>= I[30]-F[14];
630-630u[30][14]>= F[14]-I[30];

u[15][23] + u[23][15] >= 1;
630u[15][23]>= I[15]-F[23];
630-630u[15][23]>= F[23]-I[15];
630u[23][15]>= I[23]-F[15];
630-630u[23][15]>= F[15]-I[23];

u[15][57] + u[57][15] >= 1;
630u[15][57]>= I[15]-F[57];
630-630u[15][57]>= F[57]-I[15];
630u[57][15]>= I[57]-F[15];
630-630u[57][15]>= F[15]-I[57];

u[16][21] + u[21][16] >= 1;
630u[16][21]>= I[16]-F[21];
630-630u[16][21]>= F[21]-I[16];
630u[21][16]>= I[21]-F[16];
630-630u[21][16]>= F[16]-I[21];

u[16][31] + u[31][16] >= 1;
630u[16][31]>= I[16]-F[31];
630-630u[16][31]>= F[31]-I[16];
630u[31][16]>= I[31]-F[16];
630-630u[31][16]>= F[16]-I[31];

u[16][41] + u[41][16] >= 1;
630u[16][41]>= I[16]-F[41];
630-630u[16][41]>= F[41]-I[16];
630u[41][16]>= I[41]-F[16];
630-630u[41][16]>= F[16]-I[41];

u[16][59] + u[59][16] >= 1;
630u[16][59]>= I[16]-F[59];
630-630u[16][59]>= F[59]-I[16];
630u[59][16]>= I[59]-F[16];
630-630u[59][16]>= F[16]-I[59];

u[17][33] + u[33][17] >= 1;
630u[17][33]>= I[17]-F[33];
630-630u[17][33]>= F[33]-I[17];
630u[33][17]>= I[33]-F[17];
630-630u[33][17]>= F[17]-I[33];

u[18][19] + u[19][18] >= 1;
630u[18][19]>= I[18]-F[19];
630-630u[18][19]>= F[19]-I[18];
630u[19][18]>= I[19]-F[18];
630-630u[19][18]>= F[18]-I[19];

u[18][24] + u[24][18] >= 1;
630u[18][24]>= I[18]-F[24];
630-630u[18][24]>= F[24]-I[18];
630u[24][18]>= I[24]-F[18];
630-630u[24][18]>= F[18]-I[24];

u[20][37] + u[37][20] >= 1;
630u[20][37]>= I[20]-F[37];
630-630u[20][37]>= F[37]-I[20];
630u[37][20]>= I[37]-F[20];
630-630u[37][20]>= F[20]-I[37];

u[20][39] + u[39][20] >= 1;
630u[20][39]>= I[20]-F[39];
630-630u[20][39]>= F[39]-I[20];
630u[39][20]>= I[39]-F[20];
630-630u[39][20]>= F[20]-I[39];

u[20][42] + u[42][20] >= 1;
630u[20][42]>= I[20]-F[42];
630-630u[20][42]>= F[42]-I[20];
630u[42][20]>= I[42]-F[20];
630-630u[42][20]>= F[20]-I[42];

u[20][52] + u[52][20] >= 1;
630u[20][52]>= I[20]-F[52];
630-630u[20][52]>= F[52]-I[20];
630u[52][20]>= I[52]-F[20];
630-630u[52][20]>= F[20]-I[52];

u[21][31] + u[31][21] >= 1;
630u[21][31]>= I[21]-F[31];
630-630u[21][31]>= F[31]-I[21];
630u[31][21]>= I[31]-F[21];
630-630u[31][21]>= F[21]-I[31];

u[21][41] + u[41][21] >= 1;
630u[21][41]>= I[21]-F[41];
630-630u[21][41]>= F[41]-I[21];
630u[41][21]>= I[41]-F[21];
630-630u[41][21]>= F[21]-I[41];

u[21][59] + u[59][21] >= 1;
630u[21][59]>= I[21]-F[59];
630-630u[21][59]>= F[59]-I[21];
630u[59][21]>= I[59]-F[21];
630-630u[59][21]>= F[21]-I[59];

u[22][54] + u[54][22] >= 1;
630u[22][54]>= I[22]-F[54];
630-630u[22][54]>= F[54]-I[22];
630u[54][22]>= I[54]-F[22];
630-630u[54][22]>= F[22]-I[54];

u[23][57] + u[57][23] >= 1;
630u[23][57]>= I[23]-F[57];
630-630u[23][57]>= F[57]-I[23];
630u[57][23]>= I[57]-F[23];
630-630u[57][23]>= F[23]-I[57];

u[25][30] + u[30][25] >= 1;
630u[25][30]>= I[25]-F[30];
630-630u[25][30]>= F[30]-I[25];
630u[30][25]>= I[30]-F[25];
630-630u[30][25]>= F[25]-I[30];

u[26][49] + u[49][26] >= 1;
630u[26][49]>= I[26]-F[49];
630-630u[26][49]>= F[49]-I[26];
630u[49][26]>= I[49]-F[26];
630-630u[49][26]>= F[26]-I[49];

u[27][32] + u[32][27] >= 1;
630u[27][32]>= I[27]-F[32];
630-630u[27][32]>= F[32]-I[27];
630u[32][27]>= I[32]-F[27];
630-630u[32][27]>= F[27]-I[32];

u[27][34] + u[34][27] >= 1;
630u[27][34]>= I[27]-F[34];
630-630u[27][34]>= F[34]-I[27];
630u[34][27]>= I[34]-F[27];
630-630u[34][27]>= F[27]-I[34];

u[27][45] + u[45][27] >= 1;
630u[27][45]>= I[27]-F[45];
630-630u[27][45]>= F[45]-I[27];
630u[45][27]>= I[45]-F[27];
630-630u[45][27]>= F[27]-I[45];

u[28][43] + u[43][28] >= 1;
630u[28][43]>= I[28]-F[43];
630-630u[28][43]>= F[43]-I[28];
630u[43][28]>= I[43]-F[28];
630-630u[43][28]>= F[28]-I[43];

u[28][55] + u[55][28] >= 1;
630u[28][55]>= I[28]-F[55];
630-630u[28][55]>= F[55]-I[28];
630u[55][28]>= I[55]-F[28];
630-630u[55][28]>= F[28]-I[55];

u[29][35] + u[35][29] >= 1;
630u[29][35]>= I[29]-F[35];
630-630u[29][35]>= F[35]-I[29];
630u[35][29]>= I[35]-F[29];
630-630u[35][29]>= F[29]-I[35];

u[29][44] + u[44][29] >= 1;
630u[29][44]>= I[29]-F[44];
630-630u[29][44]>= F[44]-I[29];
630u[44][29]>= I[44]-F[29];
630-630u[44][29]>= F[29]-I[44];

u[29][60] + u[60][29] >= 1;
630u[29][60]>= I[29]-F[60];
630-630u[29][60]>= F[60]-I[29];
630u[60][29]>= I[60]-F[29];
630-630u[60][29]>= F[29]-I[60];

u[31][41] + u[41][31] >= 1;
630u[31][41]>= I[31]-F[41];
630-630u[31][41]>= F[41]-I[31];
630u[41][31]>= I[41]-F[31];
630-630u[41][31]>= F[31]-I[41];

u[31][59] + u[59][31] >= 1;
630u[31][59]>= I[31]-F[59];
630-630u[31][59]>= F[59]-I[31];
630u[59][31]>= I[59]-F[31];
630-630u[59][31]>= F[31]-I[59];

u[32][34] + u[34][32] >= 1;
630u[32][34]>= I[32]-F[34];
630-630u[32][34]>= F[34]-I[32];
630u[34][32]>= I[34]-F[32];
630-630u[34][32]>= F[32]-I[34];

u[32][45] + u[45][32] >= 1;
630u[32][45]>= I[32]-F[45];
630-630u[32][45]>= F[45]-I[32];
630u[45][32]>= I[45]-F[32];
630-630u[45][32]>= F[32]-I[45];

u[32][46] + u[46][32] >= 1;
630u[32][46]>= I[32]-F[46];
630-630u[32][46]>= F[46]-I[32];
630u[46][32]>= I[46]-F[32];
630-630u[46][32]>= F[32]-I[46];

u[34][45] + u[45][34] >= 1;
630u[34][45]>= I[34]-F[45];
630-630u[34][45]>= F[45]-I[34];
630u[45][34]>= I[45]-F[34];
630-630u[45][34]>= F[34]-I[45];

u[34][46] + u[46][34] >= 1;
630u[34][46]>= I[34]-F[46];
630-630u[34][46]>= F[46]-I[34];
630u[46][34]>= I[46]-F[34];
630-630u[46][34]>= F[34]-I[46];

u[35][44] + u[44][35] >= 1;
630u[35][44]>= I[35]-F[44];
630-630u[35][44]>= F[44]-I[35];
630u[44][35]>= I[44]-F[35];
630-630u[44][35]>= F[35]-I[44];

u[35][60] + u[60][35] >= 1;
630u[35][60]>= I[35]-F[60];
630-630u[35][60]>= F[60]-I[35];
630u[60][35]>= I[60]-F[35];
630-630u[60][35]>= F[35]-I[60];

u[36][40] + u[40][36] >= 1;
630u[36][40]>= I[36]-F[40];
630-630u[36][40]>= F[40]-I[36];
630u[40][36]>= I[40]-F[36];
630-630u[40][36]>= F[36]-I[40];

u[37][39] + u[39][37] >= 1;
630u[37][39]>= I[37]-F[39];
630-630u[37][39]>= F[39]-I[37];
630u[39][37]>= I[39]-F[37];
630-630u[39][37]>= F[37]-I[39];

u[37][52] + u[52][37] >= 1;
630u[37][52]>= I[37]-F[52];
630-630u[37][52]>= F[52]-I[37];
630u[52][37]>= I[52]-F[37];
630-630u[52][37]>= F[37]-I[52];

u[38][48] + u[48][38] >= 1;
630u[38][48]>= I[38]-F[48];
630-630u[38][48]>= F[48]-I[38];
630u[48][38]>= I[48]-F[38];
630-630u[48][38]>= F[38]-I[48];

u[38][50] + u[50][38] >= 1;
630u[38][50]>= I[38]-F[50];
630-630u[38][50]>= F[50]-I[38];
630u[50][38]>= I[50]-F[38];
630-630u[50][38]>= F[38]-I[50];

u[38][51] + u[51][38] >= 1;
630u[38][51]>= I[38]-F[51];
630-630u[38][51]>= F[51]-I[38];
630u[51][38]>= I[51]-F[38];
630-630u[51][38]>= F[38]-I[51];

u[38][53] + u[53][38] >= 1;
630u[38][53]>= I[38]-F[53];
630-630u[38][53]>= F[53]-I[38];
630u[53][38]>= I[53]-F[38];
630-630u[53][38]>= F[38]-I[53];

u[39][42] + u[42][39] >= 1;
630u[39][42]>= I[39]-F[42];
630-630u[39][42]>= F[42]-I[39];
630u[42][39]>= I[42]-F[39];
630-630u[42][39]>= F[39]-I[42];

u[39][52] + u[52][39] >= 1;
630u[39][52]>= I[39]-F[52];
630-630u[39][52]>= F[52]-I[39];
630u[52][39]>= I[52]-F[39];
630-630u[52][39]>= F[39]-I[52];

u[40][56] + u[56][40] >= 1;
630u[40][56]>= I[40]-F[56];
630-630u[40][56]>= F[56]-I[40];
630u[56][40]>= I[56]-F[40];
630-630u[56][40]>= F[40]-I[56];

u[41][59] + u[59][41] >= 1;
630u[41][59]>= I[41]-F[59];
630-630u[41][59]>= F[59]-I[41];
630u[59][41]>= I[59]-F[41];
630-630u[59][41]>= F[41]-I[59];

u[42][52] + u[52][42] >= 1;
630u[42][52]>= I[42]-F[52];
630-630u[42][52]>= F[52]-I[42];
630u[52][42]>= I[52]-F[42];
630-630u[52][42]>= F[42]-I[52];

u[43][55] + u[55][43] >= 1;
630u[43][55]>= I[43]-F[55];
630-630u[43][55]>= F[55]-I[43];
630u[55][43]>= I[55]-F[43];
630-630u[55][43]>= F[43]-I[55];

u[44][60] + u[60][44] >= 1;
630u[44][60]>= I[44]-F[60];
630-630u[44][60]>= F[60]-I[44];
630u[60][44]>= I[60]-F[44];
630-630u[60][44]>= F[44]-I[60];

u[45][46] + u[46][45] >= 1;
630u[45][46]>= I[45]-F[46];
630-630u[45][46]>= F[46]-I[45];
630u[46][45]>= I[46]-F[45];
630-630u[46][45]>= F[45]-I[46];

u[47][58] + u[58][47] >= 1;
630u[47][58]>= I[47]-F[58];
630-630u[47][58]>= F[58]-I[47];
630u[58][47]>= I[58]-F[47];
630-630u[58][47]>= F[47]-I[58];

u[48][50] + u[50][48] >= 1;
630u[48][50]>= I[48]-F[50];
630-630u[48][50]>= F[50]-I[48];
630u[50][48]>= I[50]-F[48];
630-630u[50][48]>= F[48]-I[50];

u[48][51] + u[51][48] >= 1;
630u[48][51]>= I[48]-F[51];
630-630u[48][51]>= F[51]-I[48];
630u[51][48]>= I[51]-F[48];
630-630u[51][48]>= F[48]-I[51];

u[50][51] + u[51][50] >= 1;
630u[50][51]>= I[50]-F[51];
630-630u[50][51]>= F[51]-I[50];
630u[51][50]>= I[51]-F[50];
630-630u[51][50]>= F[50]-I[51];

u[50][53] + u[53][50] >= 1;
630u[50][53]>= I[50]-F[53];
630-630u[50][53]>= F[53]-I[50];
630u[53][50]>= I[53]-F[50];
630-630u[53][50]>= F[50]-I[53];

u[51][53] + u[53][51] >= 1;
630u[51][53]>= I[51]-F[53];
630-630u[51][53]>= F[53]-I[51];
630u[53][51]>= I[53]-F[51];
630-630u[53][51]>= F[51]-I[53];


 // Implementa as restricoes de variaveis binarias
bin u[1][10];
bin u[10][1];
bin u[1][36];
bin u[36][1];
bin u[1][40];
bin u[40][1];
bin u[1][56];
bin u[56][1];
bin u[2][12];
bin u[12][2];
bin u[2][38];
bin u[38][2];
bin u[2][48];
bin u[48][2];
bin u[2][50];
bin u[50][2];
bin u[2][51];
bin u[51][2];
bin u[2][53];
bin u[53][2];
bin u[3][5];
bin u[5][3];
bin u[3][11];
bin u[11][3];
bin u[3][20];
bin u[20][3];
bin u[3][37];
bin u[37][3];
bin u[3][39];
bin u[39][3];
bin u[3][42];
bin u[42][3];
bin u[3][52];
bin u[52][3];
bin u[4][16];
bin u[16][4];
bin u[4][21];
bin u[21][4];
bin u[4][31];
bin u[31][4];
bin u[4][41];
bin u[41][4];
bin u[4][59];
bin u[59][4];
bin u[5][11];
bin u[11][5];
bin u[5][20];
bin u[20][5];
bin u[5][37];
bin u[37][5];
bin u[5][39];
bin u[39][5];
bin u[5][42];
bin u[42][5];
bin u[5][52];
bin u[52][5];
bin u[6][14];
bin u[14][6];
bin u[6][25];
bin u[25][6];
bin u[6][30];
bin u[30][6];
bin u[7][8];
bin u[8][7];
bin u[7][27];
bin u[27][7];
bin u[7][32];
bin u[32][7];
bin u[7][34];
bin u[34][7];
bin u[7][45];
bin u[45][7];
bin u[7][46];
bin u[46][7];
bin u[8][27];
bin u[27][8];
bin u[8][32];
bin u[32][8];
bin u[8][34];
bin u[34][8];
bin u[8][45];
bin u[45][8];
bin u[8][46];
bin u[46][8];
bin u[9][22];
bin u[22][9];
bin u[9][54];
bin u[54][9];
bin u[10][36];
bin u[36][10];
bin u[10][40];
bin u[40][10];
bin u[10][56];
bin u[56][10];
bin u[11][20];
bin u[20][11];
bin u[11][37];
bin u[37][11];
bin u[11][39];
bin u[39][11];
bin u[11][42];
bin u[42][11];
bin u[11][52];
bin u[52][11];
bin u[12][38];
bin u[38][12];
bin u[12][48];
bin u[48][12];
bin u[12][50];
bin u[50][12];
bin u[12][51];
bin u[51][12];
bin u[12][53];
bin u[53][12];
bin u[13][15];
bin u[15][13];
bin u[13][23];
bin u[23][13];
bin u[13][57];
bin u[57][13];
bin u[14][25];
bin u[25][14];
bin u[14][30];
bin u[30][14];
bin u[15][23];
bin u[23][15];
bin u[15][57];
bin u[57][15];
bin u[16][21];
bin u[21][16];
bin u[16][31];
bin u[31][16];
bin u[16][41];
bin u[41][16];
bin u[16][59];
bin u[59][16];
bin u[17][33];
bin u[33][17];
bin u[18][19];
bin u[19][18];
bin u[18][24];
bin u[24][18];
bin u[19][24];
bin u[24][19];
bin u[20][37];
bin u[37][20];
bin u[20][39];
bin u[39][20];
bin u[20][42];
bin u[42][20];
bin u[20][52];
bin u[52][20];
bin u[21][31];
bin u[31][21];
bin u[21][41];
bin u[41][21];
bin u[21][59];
bin u[59][21];
bin u[22][54];
bin u[54][22];
bin u[23][57];
bin u[57][23];
bin u[25][30];
bin u[30][25];
bin u[26][49];
bin u[49][26];
bin u[27][32];
bin u[32][27];
bin u[27][34];
bin u[34][27];
bin u[27][45];
bin u[45][27];
bin u[27][46];
bin u[46][27];
bin u[28][43];
bin u[43][28];
bin u[28][55];
bin u[55][28];
bin u[29][35];
bin u[35][29];
bin u[29][44];
bin u[44][29];
bin u[29][60];
bin u[60][29];
bin u[31][41];
bin u[41][31];
bin u[31][59];
bin u[59][31];
bin u[32][34];
bin u[34][32];
bin u[32][45];
bin u[45][32];
bin u[32][46];
bin u[46][32];
bin u[34][45];
bin u[45][34];
bin u[34][46];
bin u[46][34];
bin u[35][44];
bin u[44][35];
bin u[35][60];
bin u[60][35];
bin u[36][40];
bin u[40][36];
bin u[36][56];
bin u[56][36];
bin u[37][39];
bin u[39][37];
bin u[37][42];
bin u[42][37];
bin u[37][52];
bin u[52][37];
bin u[38][48];
bin u[48][38];
bin u[38][50];
bin u[50][38];
bin u[38][51];
bin u[51][38];
bin u[38][53];
bin u[53][38];
bin u[39][42];
bin u[42][39];
bin u[39][52];
bin u[52][39];
bin u[40][56];
bin u[56][40];
bin u[41][59];
bin u[59][41];
bin u[42][52];
bin u[52][42];
bin u[43][55];
bin u[55][43];
bin u[44][60];
bin u[60][44];
bin u[45][46];
bin u[46][45];
bin u[47][58];
bin u[58][47];
bin u[48][50];
bin u[50][48];
bin u[48][51];
bin u[51][48];
bin u[48][53];
bin u[53][48];
bin u[50][51];
bin u[51][50];
bin u[50][53];
bin u[53][50];
bin u[51][53];
bin u[53][51];
